branch-and-cut/resultados/B/b08.sol
104
27
17 73
54 31
8 73
1 64
5 31
38 65
8 27
27 34
33 35
33 38
5 64
13 50
35 50
6 56
13 16
54 2
6 71
28 50
11 43
30 50
29 33
35 46
16 54
6 43
27 35
51 35
6 73
